(synth-fun p1 ((i Int) (len Int) (cinfonum_components Int)) Bool ((Start Int (3 4 5 0 1 2 (+ Start Start) i len cinfonum_components)) (StartBool Bool ((< Start Start) (<= Start Start) (and StartBool StartBool) (or StartBool StartBool) (not StartBool)))))
(synth-fun p2 ((ci Int) (len Int) (cinfonum_components Int)) Bool ((Start Int (3 4 5 0 1 2 (+ Start Start) ci len cinfonum_components)) (StartBool Bool ((< Start Start) (<= Start Start) (and StartBool StartBool) (or StartBool StartBool) (not StartBool)))))
(declare-var i Int)
(declare-var ci Int)
(declare-var len Int)
(declare-var cinfonum_components Int)
(constraint (and (and (or (not (p1 i len cinfonum_components)) (< i 4)) (and (or (not (and (p1 i len cinfonum_components) (p1 (+ i 1) len cinfonum_components))) (< (+ i 1) 4)) (or (not (and (and (p1 i len cinfonum_components) (p1 (+ i 1) len cinfonum_components)) (p1 (+ i 2) len cinfonum_components))) (< (+ i 2) 4)))) (and (or (not (and (not (p1 i len cinfonum_components)) (p2 ci len cinfonum_components))) (< ci 4)) (and (or (not (and (not (p1 i len cinfonum_components)) (and (p2 ci len cinfonum_components) (p2 (+ ci 1) len cinfonum_components)))) (< (+ ci 1) 4)) (or (not (and (not (p1 i len cinfonum_components)) (and (p2 ci len cinfonum_components) (and (p2 (+ ci 1) len cinfonum_components) (p2 (+ ci 2) len cinfonum_components))))) (< (+ ci 2) 4))))))
(sketch p1 (< i cinfonum_components))
(sketch p2 (< ci cinfonum_components))